
Gurobi 9.5.0 (win64) logging started Mon Aug  8 21:25:56 2022

Set parameter LogFile to value "C:\Users\kmajd1\Documents\NNRepLayer_v2\demos\walking_example\dynamic_constraint\repair_net/logs/opt_log_8_8_2022_20_19_10.log"
Gurobi Optimizer version 9.5.0 build v9.5.0rc5 (win64)
Thread count: 8 physical cores, 16 logical processors, using up to 16 threads
Optimize a model with 902584 rows, 644584 columns and 15528376 nonzeros
Model fingerprint: 0x8d81c86d
Model has 1000 quadratic objective terms
Variable types: 388584 continuous, 256000 integer (256000 binary)
Coefficient statistics:
  Matrix range     [2e-05, 3e+02]
  Objective range  [7e-05, 1e+00]
  QObjective range [2e-02, 2e-02]
  Bounds range     [1e-03, 2e+03]
  RHS range        [1e-06, 3e+02]
Presolve removed 2000 rows and 0 columns (presolve time = 6s) ...
Presolve removed 2000 rows and 0 columns (presolve time = 10s) ...
Presolve removed 2000 rows and 0 columns (presolve time = 16s) ...
Presolve removed 2000 rows and 0 columns (presolve time = 21s) ...
Presolve removed 7632 rows and 5632 columns (presolve time = 26s) ...
Presolve removed 7632 rows and 11264 columns (presolve time = 30s) ...
Presolve removed 7632 rows and 11264 columns (presolve time = 35s) ...
Presolve removed 7632 rows and 11264 columns (presolve time = 40s) ...
Presolve removed 7632 rows and 11264 columns (presolve time = 45s) ...
Presolve removed 7632 rows and 11264 columns (presolve time = 50s) ...
Presolve removed 7632 rows and 11264 columns (presolve time = 55s) ...
Presolve removed 7632 rows and 11264 columns (presolve time = 60s) ...
Presolve removed 7632 rows and 11264 columns (presolve time = 65s) ...
Presolve removed 7632 rows and 11264 columns (presolve time = 70s) ...
Presolve removed 7632 rows and 11264 columns (presolve time = 75s) ...
Presolve removed 7632 rows and 11264 columns (presolve time = 80s) ...
Presolve removed 7632 rows and 11264 columns (presolve time = 85s) ...
Presolve removed 7632 rows and 11264 columns (presolve time = 90s) ...
Presolve removed 7632 rows and 11264 columns (presolve time = 95s) ...
Presolve removed 7632 rows and 11264 columns (presolve time = 100s) ...
Presolve removed 7632 rows and 11264 columns (presolve time = 105s) ...
Presolve removed 7632 rows and 11264 columns (presolve time = 110s) ...
Presolve removed 7632 rows and 11264 columns (presolve time = 115s) ...
Presolve removed 7632 rows and 11264 columns (presolve time = 120s) ...
Presolve removed 7632 rows and 11264 columns (presolve time = 125s) ...
Presolve removed 7632 rows and 11264 columns (presolve time = 130s) ...
Presolve removed 7632 rows and 11264 columns (presolve time = 135s) ...
Presolve removed 7632 rows and 11264 columns (presolve time = 140s) ...
Presolve removed 7632 rows and 11264 columns (presolve time = 145s) ...
Presolve removed 7632 rows and 11264 columns (presolve time = 150s) ...
Presolve removed 7632 rows and 11264 columns (presolve time = 155s) ...
Presolve removed 13264 rows and 11264 columns (presolve time = 163s) ...
Presolve removed 13264 rows and 11264 columns (presolve time = 166s) ...
Presolve removed 13264 rows and 11264 columns (presolve time = 170s) ...
Presolve removed 13264 rows and 11264 columns (presolve time = 175s) ...
Presolve removed 13264 rows and 11264 columns
Presolve time: 179.63s
Presolved: 889320 rows, 633320 columns, 15503849 nonzeros
Presolved model has 1000 quadratic objective terms
Variable types: 377320 continuous, 256000 integer (256000 binary)
Root relaxation presolve removed 10000 rows and 10000 columns (presolve time = 5s) ...
Root relaxation presolve removed 256000 rows and 256000 columns (presolve time = 10s) ...
Root relaxation presolve removed 256000 rows and 256000 columns (presolve time = 15s) ...
Root relaxation presolve removed 256000 rows and 256000 columns (presolve time = 20s) ...
Root relaxation presolve removed 256000 rows and 256000 columns (presolve time = 25s) ...
Root relaxation presolve removed 256000 rows and 256000 columns (presolve time = 30s) ...
Root relaxation presolve removed 256000 rows and 256000 columns (presolve time = 35s) ...
Root relaxation presolve removed 256000 rows and 256000 columns (presolve time = 40s) ...
Root relaxation presolve removed 256000 rows and 256000 columns (presolve time = 45s) ...
Root relaxation presolve removed 256000 rows and 256000 columns (presolve time = 50s) ...
Root relaxation presolve removed 256000 rows and 256000 columns (presolve time = 55s) ...
Root relaxation presolve removed 256000 rows and 256000 columns (presolve time = 60s) ...
Root relaxation presolve removed 256000 rows and 256000 columns (presolve time = 65s) ...
Root relaxation presolve removed 256000 rows and 256000 columns (presolve time = 70s) ...
Root relaxation presolve removed 256000 rows and 256000 columns (presolve time = 75s) ...
Root relaxation presolve removed 256000 rows and 256000 columns (presolve time = 80s) ...
Root relaxation presolve removed 256000 rows and 256000 columns (presolve time = 85s) ...
Root relaxation presolve removed 256000 rows and 256000 columns (presolve time = 90s) ...
Root relaxation presolve removed 256000 rows and 256000 columns (presolve time = 95s) ...
Root relaxation presolve removed 256000 rows and 256000 columns (presolve time = 100s) ...
Root relaxation presolve removed 256000 rows and 256000 columns (presolve time = 105s) ...
Root relaxation presolve removed 256000 rows and 256000 columns (presolve time = 110s) ...
Root relaxation presolve removed 256000 rows and 256000 columns (presolve time = 115s) ...
Root relaxation presolve removed 256000 rows and 256000 columns (presolve time = 120s) ...
Root relaxation presolve removed 256000 rows and 256000 columns (presolve time = 125s) ...
Root relaxation presolve removed 256000 rows and 256000 columns (presolve time = 130s) ...
Root relaxation presolve removed 256000 rows and 256000 columns (presolve time = 135s) ...
Root relaxation presolve removed 256000 rows and 256000 columns (presolve time = 140s) ...
Root relaxation presolve removed 256000 rows and 256000 columns (presolve time = 145s) ...
Root relaxation presolve removed 256000 rows and 256000 columns (presolve time = 150s) ...
Root relaxation presolve removed 256000 rows and 256000 columns (presolve time = 155s) ...
Root relaxation presolve removed 256000 rows and 256000 columns (presolve time = 160s) ...
Root relaxation presolve removed 256000 rows and 256000 columns (presolve time = 165s) ...
Root relaxation presolve removed 256000 rows and 256000 columns (presolve time = 170s) ...
Root relaxation presolve removed 256000 rows and 256000 columns (presolve time = 175s) ...
Root relaxation presolve removed 256000 rows and 256000 columns (presolve time = 180s) ...
Root relaxation presolve removed 256000 rows and 256000 columns (presolve time = 185s) ...
Root relaxation presolve removed 256000 rows and 256000 columns (presolve time = 190s) ...
Root relaxation presolve removed 256000 rows and 256000 columns (presolve time = 195s) ...
Root relaxation presolve removed 256000 rows and 256000 columns (presolve time = 200s) ...
Root relaxation presolve removed 256000 rows and 256000 columns (presolve time = 205s) ...
Root relaxation presolve removed 256000 rows and 256000 columns (presolve time = 210s) ...
Root relaxation presolve removed 256000 rows and 256000 columns (presolve time = 215s) ...
Root relaxation presolve removed 256000 rows and 256000 columns (presolve time = 220s) ...
Root relaxation presolve removed 256000 rows and 256000 columns (presolve time = 225s) ...
Root relaxation presolve removed 256000 rows and 256000 columns (presolve time = 230s) ...
Root relaxation presolve removed 256000 rows and 256000 columns (presolve time = 235s) ...
Root relaxation presolve removed 256000 rows and 256000 columns (presolve time = 240s) ...
Root relaxation presolve removed 256000 rows and 256000 columns (presolve time = 245s) ...
Root relaxation presolve removed 256000 rows and 256000 columns (presolve time = 250s) ...
Root relaxation presolve removed 256000 rows and 256000 columns (presolve time = 255s) ...
Root relaxation presolve removed 256000 rows and 256000 columns (presolve time = 260s) ...
Root relaxation presolve removed 256000 rows and 256000 columns (presolve time = 265s) ...
Root relaxation presolve removed 256000 rows and 256000 columns (presolve time = 270s) ...
Root relaxation presolve removed 256000 rows and 256000 columns (presolve time = 275s) ...
Root relaxation presolve removed 256000 rows and 256000 columns (presolve time = 280s) ...
Root relaxation presolve removed 256000 rows and 256000 columns (presolve time = 285s) ...
Root relaxation presolve removed 256000 rows and 256000 columns (presolve time = 290s) ...
Root relaxation presolve removed 256000 rows and 256000 columns (presolve time = 295s) ...
Root relaxation presolve removed 256000 rows and 256000 columns (presolve time = 300s) ...
Root relaxation presolve removed 256000 rows and 256000 columns (presolve time = 305s) ...
Root relaxation presolve removed 256000 rows and 256000 columns (presolve time = 310s) ...
Root relaxation presolve removed 256000 rows and 256000 columns (presolve time = 315s) ...
Root relaxation presolve removed 256000 rows and 256000 columns (presolve time = 320s) ...
Root relaxation presolve removed 256000 rows and 256000 columns (presolve time = 325s) ...
Root relaxation presolve removed 256000 rows and 256000 columns (presolve time = 330s) ...
Root relaxation presolve removed 256000 rows and 256000 columns (presolve time = 335s) ...
Root relaxation presolve removed 256000 rows and 256000 columns (presolve time = 340s) ...
Root relaxation presolve removed 256000 rows and 256000 columns (presolve time = 345s) ...
Root relaxation presolve removed 256000 rows and 256000 columns (presolve time = 350s) ...
Root relaxation presolve removed 256000 rows and 256000 columns (presolve time = 355s) ...
Root relaxation presolve removed 256000 rows and 256000 columns (presolve time = 360s) ...
Root relaxation presolve removed 256000 rows and 256000 columns (presolve time = 365s) ...
Root relaxation presolve removed 256000 rows and 256000 columns (presolve time = 370s) ...
Root relaxation presolve removed 256000 rows and 256000 columns (presolve time = 375s) ...
Root relaxation presolve removed 256000 rows and 256000 columns (presolve time = 380s) ...
Root relaxation presolve removed 256000 rows and 256000 columns (presolve time = 385s) ...
Root relaxation presolve removed 256000 rows and 256000 columns (presolve time = 390s) ...
Root relaxation presolve removed 256000 rows and 256000 columns (presolve time = 395s) ...
Root relaxation presolve removed 256000 rows and 256000 columns (presolve time = 400s) ...
Root relaxation presolve removed 256000 rows and 256000 columns (presolve time = 405s) ...
Root relaxation presolve removed 256000 rows and 256000 columns (presolve time = 410s) ...
Root relaxation presolve removed 256000 rows and 256000 columns (presolve time = 415s) ...
Root relaxation presolve removed 256000 rows and 256000 columns (presolve time = 420s) ...
Root relaxation presolve removed 256000 rows and 256000 columns (presolve time = 425s) ...
Root relaxation presolve removed 256000 rows and 256000 columns (presolve time = 430s) ...
Root relaxation presolve removed 256000 rows and 256000 columns (presolve time = 435s) ...
Root relaxation presolve removed 256000 rows and 256000 columns (presolve time = 440s) ...
Root relaxation presolve removed 256000 rows and 256000 columns (presolve time = 445s) ...
Root relaxation presolve removed 256000 rows and 256000 columns (presolve time = 450s) ...
Root relaxation presolve removed 256000 rows and 256000 columns (presolve time = 455s) ...
Root relaxation presolve removed 256000 rows and 256000 columns
Root relaxation presolved: 633320 rows, 377320 columns, 14735849 nonzeros
Root relaxation presolved model has 1000 quadratic objective terms


Root simplex log...

Iteration    Objective       Primal Inf.    Dual Inf.      Time
       0    3.3009674e+01   0.000000e+00   0.000000e+00    662s
    8542    3.3009674e+01   8.669284e+04   0.000000e+00    665s
   39686    3.3009674e+01   2.611963e+04   0.000000e+00    672s
   71676    3.3009674e+01   1.922306e+04   0.000000e+00    677s
  103671    3.3009674e+01   1.303950e+04   0.000000e+00    682s
  119655    3.3009674e+01   9.493689e+03   0.000000e+00    686s
  149207    3.3009674e+01   3.224284e+03   0.000000e+00    694s
  162229    3.3009674e+01   1.601550e+03   0.000000e+00    699s
  172609    3.3009674e+01   9.817551e+01   0.000000e+00    705s
  176663    3.3009674e+01   0.000000e+00   0.000000e+00    708s
  176663    3.3009674e+01   0.000000e+00   0.000000e+00    711s

Root relaxation: objective 3.300967e+01, 176663 iterations, 506.33 seconds (642.19 work units)

    Nodes    |    Current Node    |     Objective Bounds      |     Work
 Expl Unexpl |  Obj  Depth IntInf | Incumbent    BestBd   Gap | It/Node Time

     0     0   33.00967    0 8941          -   33.00967      -     -  806s
     0     0   33.00967    0 8941          -   33.00967      -     -  857s
     0     2   33.00967    0 8941          -   33.00967      -     - 2703s
     1     4   33.00967    1 8942          -   33.00967      -  91.0 2708s
     3     8   33.00967    2 8941          -   33.00967      -   374 2714s

Explored 7 nodes (178157 simplex iterations) in 2727.13 seconds (1730.00 work units)
Thread count was 16 (of 16 available processors)

Solution count 0

Solve interrupted (error code 10001)
Best objective -, best bound 3.300967369553e+01, gap -
